(set-logic QF_S)
(declare-fun var0 () String)
(declare-fun var1 () String)
(declare-fun var2 () String)
(declare-fun var3 () String)
(declare-fun var4 () String)
(declare-fun var5 () String)
(declare-fun var6 () String)
(declare-fun var7 () String)
(declare-fun var8 () String)
(declare-fun var9 () String)
(declare-fun var10 () String)
(declare-fun var11 () String)
(declare-fun var12 () String)
(declare-fun var13 () String)
(declare-fun var14 () String)
(declare-fun var15 () String)
(declare-fun var16 () String)
(declare-fun var17 () String)
(declare-fun var18 () String)
(declare-fun var19 () String)
(declare-fun var20 () String)
(declare-fun var21 () String)
(declare-fun var22 () String)
(declare-fun var23 () String)
(declare-fun var24 () String)
(declare-fun var25 () String)
(declare-fun var26 () String)
(declare-fun var27 () String)
(declare-fun var28 () String)
(declare-fun var29 () String)
(declare-fun var30 () String)
(declare-fun var31 () String)
(declare-fun var32 () String)
(declare-fun var33 () String)
(declare-fun var34 () String)
(declare-fun var35 () String)
(declare-fun var36 () String)
(declare-fun var37 () String)
(declare-fun var38 () String)
(declare-fun var39 () String)
(declare-fun var40 () String)
(declare-fun var41 () String)
(declare-fun var42 () String)
(declare-fun var43 () String)
(declare-fun var44 () String)
(declare-fun var45 () String)
(declare-fun var46 () String)
(declare-fun var47 () String)
(declare-fun var48 () String)
(declare-fun var49 () String)
(declare-fun var50 () String)
(declare-fun var51 () String)
(declare-fun var52 () String)
(declare-fun var53 () String)
(declare-fun var54 () String)
(declare-fun var55 () String)
(declare-fun var56 () String)
(declare-fun var57 () String)
(declare-fun var58 () String)
(declare-fun var59 () String)
(declare-fun var60 () String)
(assert (= var0 (Concat var1 var2)))
(assert (= var2 (Concat var3 var4)))
(assert (= var4 (Concat var5 var6)))
(assert (= var6 (Concat var7 var8)))
(assert (= var8 (Concat var9 var10)))
(assert (= var10 (Concat var11 var12)))
(assert (= var12 (Concat var13 var14)))
(assert (= var14 (Concat var15 var16)))
(assert (= var16 (Concat var17 var18)))
(assert (= var18 (Concat var19 var20)))
(assert (= var20 (Concat var21 var22)))
(assert (= var22 (Concat var23 var24)))
(assert (= var24 (Concat var25 var26)))
(assert (= var26 (Concat var27 var28)))
(assert (= var28 (Concat var29 var30)))
(assert (= var30 (Concat var31 var32)))
(assert (= var32 (Concat var33 var34)))
(assert (= var34 (Concat var35 var36)))
(assert (= var36 (Concat var37 var38)))
(assert (= var38 (Concat var39 var40)))
(assert (= var40 (Concat var41 var42)))
(assert (= var42 (Concat var43 var44)))
(assert (= var44 (Concat var45 var46)))
(assert (= var46 (Concat var47 var48)))
(assert (= var48 (Concat var49 var50)))
(assert (= var50 (Concat var51 var52)))
(assert (= var52 (Concat var53 var54)))
(assert (= var54 (Concat var55 var56)))
(assert (= var56 (Concat var57 var58)))
(assert (= var58 (Concat var59 var60)))
(assert (= var0 "solution"))
(assert (= "\"" (CharAt var49 320)))
(assert (= "_" (CharAt var2 716)))
(assert (= "S" (CharAt var32 923)))
(assert (= "/" (CharAt var33 27)))
(assert (= "+" (CharAt var50 515)))
(assert (= "G" (CharAt var38 593)))
(assert (= "Y" (CharAt var36 970)))
(assert (= "u" (CharAt var48 318)))
(assert (= "'" (CharAt var53 711)))
(assert (= "(" (CharAt var54 87)))
(assert (= "p" (CharAt var49 104)))
(assert (= "p" (CharAt var13 753)))
(assert (= ";" (CharAt var0 987)))
(assert (= "E" (CharAt var35 946)))
(assert (= "'" (CharAt var50 295)))
(assert (= "z" (CharAt var18 324)))
(assert (= "L" (CharAt var6 608)))
(assert (= "a" (CharAt var5 480)))
(assert (= "@" (CharAt var31 788)))
(assert (= "$" (CharAt var38 451)))
(assert (= "&" (CharAt var32 167)))
(assert (= "k" (CharAt var17 568)))
(assert (= "i" (CharAt var48 451)))
(assert (= "4" (CharAt var59 162)))
(assert (= "(" (CharAt var27 705)))
(assert (= "k" (CharAt var6 744)))
(assert (= "=" (CharAt var54 452)))
(assert (= "R" (CharAt var3 57)))
(assert (= "9" (CharAt var20 842)))
(assert (= "_" (CharAt var45 229)))
(assert (= "*" (CharAt var44 815)))
(assert (= "l" (CharAt var59 623)))
(assert (= "V" (CharAt var51 992)))
(assert (= "j" (CharAt var17 555)))
(assert (= "5" (CharAt var26 644)))
(assert (= "i" (CharAt var29 425)))
(assert (= "?" (CharAt var54 886)))
(assert (= "X" (CharAt var44 565)))
(assert (= "Q" (CharAt var3 874)))
(assert (= "J" (CharAt var31 582)))
(assert (= ";" (CharAt var38 950)))
(assert (= "i" (CharAt var29 73)))
(assert (= "w" (CharAt var42 646)))
(assert (= "?" (CharAt var42 911)))
(assert (= "=" (CharAt var9 147)))
(assert (= "4" (CharAt var5 774)))
(assert (= "j" (CharAt var54 235)))
(assert (= "U" (CharAt var30 5)))
(assert (= "c" (CharAt var44 92)))
(assert (= "^" (CharAt var43 821)))
(assert (= "S" (CharAt var4 523)))
(assert (= "F" (CharAt var43 501)))
(assert (= "." (CharAt var16 224)))
(assert (= "_" (CharAt var32 732)))
(assert (= "6" (CharAt var11 800)))
(assert (= ";" (CharAt var21 1)))
(assert (= "b" (CharAt var40 806)))
(assert (= "f" (CharAt var13 240)))
(assert (= "~" (CharAt var32 950)))
(assert (= "e" (CharAt var57 947)))
(assert (= "U" (CharAt var51 690)))
(assert (= "x" (CharAt var11 922)))
(assert (= "R" (CharAt var46 971)))
(assert (= "'" (CharAt var28 472)))
(assert (= "u" (CharAt var36 24)))
(assert (= "z" (CharAt var31 563)))
(assert (= "@" (CharAt var3 24)))
(assert (= "u" (CharAt var37 243)))
(assert (= "`" (CharAt var41 315)))
(assert (= "d" (CharAt var12 794)))
(assert (= "j" (CharAt var46 487)))
(assert (= "W" (CharAt var59 418)))
(assert (= "i" (CharAt var0 513)))
(assert (= "g" (CharAt var52 354)))
(assert (= "&" (CharAt var5 835)))
(assert (= "\\" (CharAt var13 933)))
(assert (= "v" (CharAt var49 390)))
(assert (= "&" (CharAt var7 236)))
(assert (= "'" (CharAt var33 896)))
(assert (= "R" (CharAt var40 61)))
(assert (= "m" (CharAt var28 702)))
(assert (= ":" (CharAt var10 229)))
(assert (= "Q" (CharAt var18 132)))
(assert (= "n" (CharAt var26 371)))
(assert (= "o" (CharAt var43 359)))
(assert (= "." (CharAt var51 849)))
(assert (= "#" (CharAt var2 480)))
(assert (= "j" (CharAt var9 289)))
(assert (= "'" (CharAt var44 524)))
(assert (= "b" (CharAt var1 271)))
(assert (= "I" (CharAt var15 244)))
(assert (= ")" (CharAt var58 539)))
(assert (= "H" (CharAt var24 870)))
(assert (= "4" (CharAt var49 394)))
(assert (= "K" (CharAt var22 672)))
(assert (= "W" (CharAt var1 659)))
(assert (= "H" (CharAt var8 797)))
(assert (= "b" (CharAt var30 113)))
(assert (= "d" (CharAt var21 89)))
(assert (= "S" (CharAt var45 753)))
(assert (= "M" (CharAt var49 820)))
(assert (= "i" (CharAt var31 948)))
(assert (= "z" (CharAt var46 937)))
(assert (= "K" (CharAt var49 452)))
(assert (= "~" (CharAt var7 854)))
(assert (= "t" (CharAt var42 40)))
(assert (= "W" (CharAt var7 40)))
(assert (= "2" (CharAt var35 785)))
(assert (= "v" (CharAt var39 132)))
(assert (= "-" (CharAt var18 947)))
(assert (= "!" (CharAt var1 820)))
(assert (= "F" (CharAt var30 547)))
(assert (= "," (CharAt var49 581)))
(assert (= "4" (CharAt var2 491)))
(assert (= "r" (CharAt var36 341)))
(assert (= ":" (CharAt var48 616)))
(assert (= "\\" (CharAt var44 340)))
(assert (= "w" (CharAt var26 458)))
(assert (= "d" (CharAt var27 505)))
(assert (= "B" (CharAt var49 547)))
(assert (= "B" (CharAt var11 147)))
(assert (= "Z" (CharAt var33 167)))
(assert (= "G" (CharAt var57 417)))
(assert (= "q" (CharAt var60 361)))
(assert (= "J" (CharAt var43 902)))
(assert (= "e" (CharAt var5 970)))
(assert (= ":" (CharAt var53 492)))
(assert (= "c" (CharAt var24 614)))
(assert (= "[" (CharAt var51 64)))
(assert (= "c" (CharAt var51 819)))
(assert (= "G" (CharAt var29 739)))
(assert (= "d" (CharAt var7 713)))
(assert (= "(" (CharAt var47 650)))
(assert (= "~" (CharAt var59 550)))
(assert (= "_" (CharAt var49 457)))
(assert (= "V" (CharAt var46 338)))
(assert (= "e" (CharAt var3 918)))
(assert (= "-" (CharAt var56 913)))
(assert (= "3" (CharAt var17 985)))
(assert (= "O" (CharAt var46 731)))
(assert (= "U" (CharAt var6 573)))
(assert (= "B" (CharAt var52 766)))
(assert (= "n" (CharAt var4 533)))
(assert (= "e" (CharAt var45 568)))
(assert (= "F" (CharAt var6 73)))
(assert (= "w" (CharAt var54 838)))
(assert (= "Y" (CharAt var27 734)))
(assert (= "[" (CharAt var20 948)))
(assert (= "T" (CharAt var17 880)))
(assert (= "]" (CharAt var20 288)))
(assert (= "f" (CharAt var3 649)))
(assert (= ")" (CharAt var9 408)))
(assert (= "c" (CharAt var40 770)))
(assert (= "O" (CharAt var29 440)))
(assert (= "2" (CharAt var54 58)))
(assert (= "9" (CharAt var11 994)))
(assert (= "[" (CharAt var30 516)))
(assert (= "m" (CharAt var38 525)))
(assert (= "g" (CharAt var35 761)))
(assert (= "b" (CharAt var39 639)))
(assert (= "b" (CharAt var59 202)))
(assert (= "y" (CharAt var46 710)))
(assert (= "*" (CharAt var59 304)))
(assert (= "?" (CharAt var50 296)))
(assert (= "%" (CharAt var27 105)))
(assert (= "~" (CharAt var48 556)))
(assert (= "g" (CharAt var12 123)))
(assert (= "I" (CharAt var49 402)))
(assert (= "D" (CharAt var15 921)))
(assert (= "j" (CharAt var52 184)))
(assert (= "$" (CharAt var2 953)))
(assert (= "Z" (CharAt var6 143)))
(assert (= "Q" (CharAt var14 995)))
(assert (= "m" (CharAt var21 387)))
(assert (= "3" (CharAt var30 604)))
(assert (= "`" (CharAt var4 972)))
(assert (= "u" (CharAt var54 556)))
(assert (= "J" (CharAt var13 592)))
(assert (= "-" (CharAt var60 855)))
(assert (= "H" (CharAt var44 233)))
(assert (= "v" (CharAt var28 571)))
(assert (= "$" (CharAt var60 259)))
(assert (= "x" (CharAt var16 805)))
(assert (= "." (CharAt var55 406)))
(assert (= "i" (CharAt var26 256)))
(assert (= "B" (CharAt var45 59)))
(assert (= "1" (CharAt var27 833)))
(assert (= "'" (CharAt var19 138)))
(assert (= "?" (CharAt var35 943)))
(assert (= "P" (CharAt var26 938)))
(assert (= "l" (CharAt var39 551)))
(assert (= ")" (CharAt var51 841)))
(assert (= "2" (CharAt var20 607)))
(assert (= "J" (CharAt var36 803)))
(assert (= "v" (CharAt var25 939)))
(assert (= "T" (CharAt var24 369)))
(assert (= "U" (CharAt var7 716)))
(assert (= "0" (CharAt var8 68)))
(assert (= "+" (CharAt var60 556)))
(assert (= "#" (CharAt var4 690)))
(assert (= "W" (CharAt var47 336)))
(assert (= "}" (CharAt var53 185)))
(assert (= "J" (CharAt var5 760)))
(assert (= "i" (CharAt var4 843)))
(assert (= "t" (CharAt var5 698)))
(assert (= "&" (CharAt var55 775)))
(assert (= "?" (CharAt var31 20)))
(assert (= "6" (CharAt var49 423)))
(assert (= "m" (CharAt var26 506)))
(assert (= "$" (CharAt var36 951)))
(assert (= "H" (CharAt var59 206)))
(assert (= "b" (CharAt var38 341)))
(assert (= "5" (CharAt var2 37)))
(assert (= "t" (CharAt var60 250)))
(assert (= "T" (CharAt var42 33)))
(assert (= "5" (CharAt var12 210)))
(assert (= "b" (CharAt var41 82)))
(assert (= "%" (CharAt var37 975)))
(assert (= "/" (CharAt var57 525)))
(assert (= "m" (CharAt var7 969)))
(assert (= "W" (CharAt var22 887)))
(assert (= "o" (CharAt var41 954)))
(assert (= "F" (CharAt var45 631)))
(assert (= "d" (CharAt var26 43)))
(assert (= "z" (CharAt var10 562)))
(assert (= "U" (CharAt var36 197)))
(assert (= "." (CharAt var46 614)))
(assert (= "m" (CharAt var41 144)))
(assert (= "g" (CharAt var51 504)))
(assert (= "X" (CharAt var17 891)))
(assert (= "'" (CharAt var18 376)))
(assert (= "\"" (CharAt var41 227)))
(assert (= "!" (CharAt var30 517)))
(assert (= "P" (CharAt var58 544)))
(assert (= "z" (CharAt var36 897)))
(assert (= "v" (CharAt var56 467)))
(assert (= "Q" (CharAt var54 331)))
(assert (= ">" (CharAt var30 618)))
(assert (= "?" (CharAt var38 274)))
(assert (= "6" (CharAt var11 184)))
(assert (= "]" (CharAt var56 561)))
(assert (= "8" (CharAt var59 489)))
(assert (= "5" (CharAt var45 114)))
(assert (= ">" (CharAt var45 955)))
(assert (= "-" (CharAt var5 55)))
(assert (= "'" (CharAt var34 32)))
(assert (= "C" (CharAt var28 389)))
(assert (= "~" (CharAt var41 717)))
(assert (= "." (CharAt var29 548)))
(assert (= "l" (CharAt var0 770)))
(assert (= "8" (CharAt var41 5)))
(assert (= "6" (CharAt var9 496)))
(assert (= "Q" (CharAt var20 978)))
(assert (= "[" (CharAt var50 267)))
(assert (= "P" (CharAt var41 278)))
(assert (= "2" (CharAt var24 14)))
(assert (= "f" (CharAt var60 827)))
(assert (= "+" (CharAt var0 811)))
(assert (= "_" (CharAt var13 37)))
(assert (= "G" (CharAt var44 376)))
(assert (= "(" (CharAt var9 329)))
(assert (= "b" (CharAt var50 419)))
(assert (= "g" (CharAt var58 191)))
(assert (= "i" (CharAt var40 535)))
(assert (= "\"" (CharAt var48 309)))
(assert (= "n" (CharAt var14 956)))
(assert (= "h" (CharAt var58 327)))
(assert (= "K" (CharAt var8 316)))
(assert (= "@" (CharAt var18 466)))
(assert (= "V" (CharAt var8 979)))
(assert (= "\\" (CharAt var18 615)))
(assert (= "C" (CharAt var39 790)))
(assert (= "b" (CharAt var49 343)))
(assert (= "f" (CharAt var15 722)))
(assert (= "4" (CharAt var51 120)))
(assert (= "]" (CharAt var5 931)))
(assert (= "+" (CharAt var5 979)))
(assert (= "O" (CharAt var27 102)))
(assert (= "*" (CharAt var24 667)))
(assert (= "'" (CharAt var42 665)))
(assert (= "G" (CharAt var33 721)))
(assert (= "N" (CharAt var24 620)))
(assert (= "M" (CharAt var34 892)))
(assert (= "z" (CharAt var3 876)))
(assert (= "9" (CharAt var51 773)))
(assert (= "^" (CharAt var8 164)))
(assert (= "+" (CharAt var50 895)))
(assert (= "j" (CharAt var49 679)))
(assert (= "X" (CharAt var34 273)))
(assert (= "(" (CharAt var36 794)))
(assert (= "f" (CharAt var42 860)))
(assert (= "V" (CharAt var21 778)))
(assert (= "7" (CharAt var3 198)))
(assert (= "L" (CharAt var49 108)))
(assert (= "'" (CharAt var28 905)))
(assert (= "@" (CharAt var13 899)))
(assert (= "\\" (CharAt var54 577)))
(assert (= "r" (CharAt var50 278)))
(assert (= "[" (CharAt var10 924)))
(assert (= ">" (CharAt var32 190)))
(assert (= "A" (CharAt var41 953)))
(assert (= "-" (CharAt var54 285)))
(assert (= "6" (CharAt var39 265)))
(assert (= "`" (CharAt var4 815)))
(assert (= "5" (CharAt var57 701)))
(assert (= "!" (CharAt var55 772)))
(assert (= "D" (CharAt var27 627)))
(assert (= "I" (CharAt var56 107)))
(assert (= "}" (CharAt var2 163)))
(assert (= "2" (CharAt var42 821)))
(assert (= "y" (CharAt var1 395)))
(assert (= "I" (CharAt var3 398)))
(assert (= "a" (CharAt var41 132)))
(assert (= "W" (CharAt var55 537)))
(assert (= "L" (CharAt var46 374)))
(assert (= "#" (CharAt var38 123)))
(assert (= "T" (CharAt var22 539)))
(assert (= ";" (CharAt var19 899)))
(assert (= "/" (CharAt var7 733)))
(assert (= "p" (CharAt var34 519)))
(assert (= "v" (CharAt var19 45)))
(assert (= "V" (CharAt var48 526)))
(assert (= "K" (CharAt var18 217)))
(assert (= "E" (CharAt var9 344)))
(assert (= ">" (CharAt var10 511)))
(assert (= "#" (CharAt var29 296)))
(assert (= "U" (CharAt var42 342)))
(assert (= "." (CharAt var54 11)))
(assert (= "{" (CharAt var28 612)))
(assert (= "1" (CharAt var46 179)))
(assert (= "`" (CharAt var31 942)))
(assert (= "|" (CharAt var27 966)))
(assert (= "T" (CharAt var32 642)))
(assert (= "," (CharAt var24 361)))
(assert (= "z" (CharAt var26 286)))
(assert (= ")" (CharAt var20 818)))
(assert (= "{" (CharAt var43 541)))
(assert (= "o" (CharAt var7 264)))
(assert (= "N" (CharAt var33 524)))
(assert (= "i" (CharAt var12 155)))
(assert (= "]" (CharAt var42 451)))
(assert (= "4" (CharAt var6 364)))
(assert (= "/" (CharAt var37 138)))
(assert (= "s" (CharAt var43 646)))
(assert (= "_" (CharAt var41 300)))
(assert (= "n" (CharAt var14 879)))
(assert (= "k" (CharAt var56 487)))
(assert (= "O" (CharAt var42 259)))
(assert (= "Y" (CharAt var32 558)))
(assert (= "3" (CharAt var50 76)))
(assert (= "]" (CharAt var53 418)))
(assert (= "7" (CharAt var57 292)))
(assert (= "3" (CharAt var33 806)))
(assert (= "g" (CharAt var36 689)))
(assert (= "[" (CharAt var43 668)))
(assert (= "J" (CharAt var48 111)))
(assert (= "a" (CharAt var41 42)))
(assert (= "b" (CharAt var37 511)))
(assert (= "c" (CharAt var24 591)))
(assert (= "b" (CharAt var25 445)))
(assert (= ";" (CharAt var11 602)))
(assert (= "R" (CharAt var56 589)))
(assert (= "g" (CharAt var20 622)))
(assert (= "e" (CharAt var36 881)))
(assert (= "@" (CharAt var9 942)))
(assert (= "5" (CharAt var51 343)))
(assert (= "T" (CharAt var56 81)))
(assert (= "N" (CharAt var47 323)))
(assert (= "Q" (CharAt var12 138)))
(assert (= "n" (CharAt var7 832)))
(assert (= "6" (CharAt var42 498)))
(assert (= "." (CharAt var47 403)))
(assert (= "0" (CharAt var22 877)))
(assert (= "5" (CharAt var41 911)))
(assert (= "8" (CharAt var29 819)))
(assert (= "+" (CharAt var53 417)))
(assert (= "t" (CharAt var25 364)))
(assert (= "H" (CharAt var8 635)))
(assert (= "5" (CharAt var50 664)))
(assert (= "[" (CharAt var52 659)))
(assert (= "9" (CharAt var14 960)))
(assert (= "Q" (CharAt var20 305)))
(assert (= "X" (CharAt var48 845)))
(assert (= "m" (CharAt var28 538)))
(assert (= "+" (CharAt var32 175)))
(assert (= "*" (CharAt var31 488)))
(assert (= "\"" (CharAt var26 354)))
(assert (= "}" (CharAt var20 612)))
(assert (= "p" (CharAt var28 725)))
(assert (= "l" (CharAt var53 139)))
(assert (= "f" (CharAt var39 409)))
(assert (= "K" (CharAt var7 904)))
(assert (= "'" (CharAt var32 137)))
(assert (= "+" (CharAt var31 279)))
(assert (= "(" (CharAt var22 635)))
(assert (= "'" (CharAt var48 544)))
(assert (= "X" (CharAt var29 609)))
(assert (= "w" (CharAt var2 561)))
(assert (= "n" (CharAt var2 982)))
(assert (= "," (CharAt var49 188)))
(assert (= "X" (CharAt var11 953)))
(assert (= ")" (CharAt var34 527)))
(assert (= "R" (CharAt var54 73)))
(assert (= "b" (CharAt var41 862)))
(assert (= "b" (CharAt var11 593)))
(assert (= "U" (CharAt var10 507)))
(assert (= "-" (CharAt var16 660)))
(assert (= "=" (CharAt var47 613)))
(assert (= "/" (CharAt var25 376)))
(assert (= "h" (CharAt var53 237)))
(assert (= "c" (CharAt var29 834)))
(assert (= "j" (CharAt var20 586)))
(assert (= "%" (CharAt var2 131)))
(assert (= "w" (CharAt var15 88)))
(assert (= "/" (CharAt var43 70)))
(assert (= "+" (CharAt var16 143)))
(assert (= "-" (CharAt var57 507)))
(assert (= "3" (CharAt var20 986)))
(assert (= "p" (CharAt var25 503)))
(assert (= ":" (CharAt var53 789)))
(assert (= "|" (CharAt var38 679)))
(assert (= "b" (CharAt var46 607)))
(assert (= "d" (CharAt var4 408)))
(assert (= "f" (CharAt var50 853)))
(assert (= "Q" (CharAt var52 266)))
(assert (= "H" (CharAt var36 610)))
(assert (= "%" (CharAt var10 564)))
(assert (= "3" (CharAt var37 846)))
(assert (= "V" (CharAt var18 534)))
(assert (= "h" (CharAt var51 148)))
(assert (= "]" (CharAt var42 329)))
(assert (= "N" (CharAt var57 192)))
(assert (= "`" (CharAt var14 31)))
(assert (= "{" (CharAt var57 406)))
(assert (= "b" (CharAt var18 289)))
(assert (= "&" (CharAt var20 799)))
(assert (= "1" (CharAt var30 73)))
(assert (= "{" (CharAt var7 208)))
(assert (= "6" (CharAt var19 911)))
(assert (= "f" (CharAt var12 229)))
(assert (= "." (CharAt var26 793)))
(assert (= "M" (CharAt var13 867)))
(assert (= "Y" (CharAt var12 219)))
(assert (= "$" (CharAt var19 692)))
(assert (= "_" (CharAt var53 43)))
(assert (= "K" (CharAt var20 344)))
(assert (= "y" (CharAt var44 936)))
(assert (= "K" (CharAt var8 780)))
(assert (= "." (CharAt var45 756)))
(assert (= "L" (CharAt var56 517)))
(assert (= "D" (CharAt var10 149)))
(assert (= "n" (CharAt var28 102)))
(assert (= "y" (CharAt var33 926)))
(assert (= "s" (CharAt var8 323)))
(assert (= "i" (CharAt var25 897)))
(assert (= "a" (CharAt var44 777)))
(assert (= "u" (CharAt var52 503)))
(assert (= "z" (CharAt var21 339)))
(assert (= "J" (CharAt var14 465)))
(assert (= "~" (CharAt var28 923)))
(assert (= "H" (CharAt var0 970)))
(assert (= "Q" (CharAt var22 186)))
(assert (= "*" (CharAt var20 415)))
(assert (= "'" (CharAt var8 825)))
(assert (= "\"" (CharAt var27 869)))
(assert (= "<" (CharAt var32 860)))
(assert (= "]" (CharAt var59 112)))
(assert (= "p" (CharAt var2 273)))
(assert (= "|" (CharAt var57 211)))
(assert (= "g" (CharAt var40 446)))
(assert (= "x" (CharAt var54 174)))
(assert (= "X" (CharAt var4 672)))
(assert (= "\"" (CharAt var19 276)))
(assert (= "Y" (CharAt var55 391)))
(assert (= "?" (CharAt var8 816)))
(assert (= "H" (CharAt var44 161)))
(assert (= "t" (CharAt var8 311)))
(assert (= "j" (CharAt var60 236)))
(assert (= "n" (CharAt var51 743)))
(assert (= "m" (CharAt var56 939)))
(assert (= "+" (CharAt var26 410)))
(assert (= "(" (CharAt var23 470)))
(assert (= "E" (CharAt var35 394)))
(assert (= "A" (CharAt var22 151)))
(assert (= "B" (CharAt var5 834)))
(assert (= "4" (CharAt var39 568)))
(assert (= "+" (CharAt var56 77)))
(assert (= "*" (CharAt var48 637)))
(assert (= "[" (CharAt var6 848)))
(assert (= "w" (CharAt var57 860)))
(assert (= "A" (CharAt var10 559)))
(assert (= "W" (CharAt var31 521)))
(assert (= "C" (CharAt var54 9)))
(assert (= "4" (CharAt var48 316)))
(assert (= "z" (CharAt var35 622)))
(assert (= "Y" (CharAt var44 790)))
(assert (= "O" (CharAt var30 607)))
(assert (= "S" (CharAt var41 228)))
(assert (= "a" (CharAt var26 994)))
(assert (= "G" (CharAt var3 396)))
(assert (= "h" (CharAt var51 560)))
(assert (= "%" (CharAt var19 238)))
(assert (= "w" (CharAt var39 506)))
(assert (= "\"" (CharAt var59 682)))
(assert (= "7" (CharAt var17 358)))
(assert (= "X" (CharAt var24 399)))
(assert (= ":" (CharAt var59 443)))
(assert (= "w" (CharAt var27 999)))
(assert (= "d" (CharAt var34 255)))
(assert (= "Z" (CharAt var48 382)))
(assert (= "Y" (CharAt var34 65)))
(assert (= "D" (CharAt var51 704)))
(assert (= "?" (CharAt var53 970)))
(assert (= "2" (CharAt var31 493)))
(assert (= "G" (CharAt var20 538)))
(assert (= "4" (CharAt var47 526)))
(assert (= ":" (CharAt var42 468)))
(assert (= ";" (CharAt var22 86)))
(assert (= "B" (CharAt var25 476)))
(assert (= "u" (CharAt var57 131)))
(assert (= "^" (CharAt var36 285)))
(check-sat)